sat
(
(define-fun sym5050 () String "G")
(define-fun sym205 () String "Y")
(define-fun sym547 () String "G")
(define-fun sym1669 () String "G")
(define-fun sym2318 () String "G")
(define-fun sym1886 () String "L")
(define-fun sym1028 () String "G")
(define-fun sym3789 () String "G")
(define-fun sym4211 () String "G")
(define-fun sym5463 () String "L")
(define-fun sym161 () String "A")
(define-fun sym812 () String "G")
(define-fun sym2726 () String "H")
(define-fun sym1237 () String "G")
(define-fun sym2943 () String "G")
(define-fun sym4427 () String "H")
(define-fun sym4844 () String "G")
(define-fun sym3577 () String "L")
(define-fun sym1453 () String "G")
(define-fun sym2520 () String "G")
(define-fun sym2102 () String "G")
(define-fun sym4005 () String "G")
(define-fun sym3159 () String "G")
(define-fun sym4642 () String "G")
(define-fun sym5257 () String "L")
(define-fun sym3375 () String "G")
)
